
Gurobi 7.5.1 (win64) logging started 12/02/18 18:26:16

Academic license - for non-commercial use only
Optimize a model with 3 rows, 4 columns and 10 nonzeros
Coefficient statistics:
  Matrix range     [1e+00, 9e+00]
  Objective range  [2e+00, 7e+00]
  Bounds range     [4e-01, 2e+01]
  RHS range        [8e+00, 2e+01]
Presolve removed 3 rows and 4 columns
Presolve time: 0.01s
Presolve: All rows and columns removed
Iteration    Objective       Primal Inf.    Dual Inf.      Time
       0    3.0342857e+01   0.000000e+00   0.000000e+00      0s

Solved in 0 iterations and 0.02 seconds
Optimal objective  3.034285714e+01

Gurobi 7.5.1 (win64) logging started 12/02/18 21:38:33

Academic license - for non-commercial use only
Optimize a model with 2 rows, 5 columns and 8 nonzeros
Coefficient statistics:
  Matrix range     [1e+00, 7e+00]
  Objective range  [1e+00, 7e+00]
  Bounds range     [0e+00, 0e+00]
  RHS range        [0e+00, 0e+00]
Presolve removed 1 rows and 2 columns
Presolve time: 0.00s
Presolved: 1 rows, 3 columns, 3 nonzeros

Iteration    Objective       Primal Inf.    Dual Inf.      Time
       0    0.0000000e+00   0.000000e+00   0.000000e+00      0s
       0    0.0000000e+00   0.000000e+00   0.000000e+00      0s

Solved in 0 iterations and 0.00 seconds
Optimal objective  0.000000000e+00

Gurobi 7.5.1 (win64) logging started 12/02/18 21:44:12

Academic license - for non-commercial use only
Optimize a model with 3 rows, 5 columns and 12 nonzeros
Coefficient statistics:
  Matrix range     [1e+00, 9e+00]
  Objective range  [1e+00, 7e+00]
  Bounds range     [0e+00, 0e+00]
  RHS range        [0e+00, 0e+00]
Presolve removed 2 rows and 2 columns
Presolve time: 0.00s
Presolved: 1 rows, 3 columns, 3 nonzeros

Iteration    Objective       Primal Inf.    Dual Inf.      Time
       0    0.0000000e+00   0.000000e+00   0.000000e+00      0s
       0    0.0000000e+00   0.000000e+00   0.000000e+00      0s

Solved in 0 iterations and 0.00 seconds
Optimal objective  0.000000000e+00

Gurobi 7.5.1 (win64) logging started 12/02/18 21:49:49

Academic license - for non-commercial use only
Optimize a model with 3 rows, 5 columns and 12 nonzeros
Coefficient statistics:
  Matrix range     [1e+00, 9e+00]
  Objective range  [1e+00, 7e+00]
  Bounds range     [0e+00, 0e+00]
  RHS range        [0e+00, 0e+00]
Presolve removed 2 rows and 2 columns
Presolve time: 0.00s
Presolved: 1 rows, 3 columns, 3 nonzeros

Iteration    Objective       Primal Inf.    Dual Inf.      Time
       0    0.0000000e+00   0.000000e+00   0.000000e+00      0s
       0    0.0000000e+00   0.000000e+00   0.000000e+00      0s

Solved in 0 iterations and 0.00 seconds
Optimal objective  0.000000000e+00

Gurobi 7.5.1 (win64) logging started 12/02/18 21:50:17

Academic license - for non-commercial use only
Warning for adding constraints: zero or small (< 1e-13) coefficients, ignored
Optimize a model with 3 rows, 5 columns and 13 nonzeros
Coefficient statistics:
  Matrix range     [1e+00, 9e+00]
  Objective range  [1e+00, 7e+00]
  Bounds range     [0e+00, 0e+00]
  RHS range        [0e+00, 0e+00]
Presolve removed 2 rows and 2 columns
Presolve time: 0.00s
Presolved: 1 rows, 3 columns, 3 nonzeros

Iteration    Objective       Primal Inf.    Dual Inf.      Time
       0    0.0000000e+00   0.000000e+00   0.000000e+00      0s
       0    0.0000000e+00   0.000000e+00   0.000000e+00      0s

Solved in 0 iterations and 0.00 seconds
Optimal objective  0.000000000e+00

Gurobi 7.5.1 (win64) logging started 12/02/18 21:51:11

Academic license - for non-commercial use only
Warning for adding constraints: zero or small (< 1e-13) coefficients, ignored
Optimize a model with 3 rows, 5 columns and 13 nonzeros
Coefficient statistics:
  Matrix range     [1e+00, 9e+00]
  Objective range  [1e+00, 7e+00]
  Bounds range     [0e+00, 0e+00]
  RHS range        [0e+00, 0e+00]
Presolve removed 2 rows and 2 columns
Presolve time: 0.00s
Presolved: 1 rows, 3 columns, 3 nonzeros

Iteration    Objective       Primal Inf.    Dual Inf.      Time
       0    0.0000000e+00   0.000000e+00   0.000000e+00      0s
       0    0.0000000e+00   0.000000e+00   0.000000e+00      0s

Solved in 0 iterations and 0.00 seconds
Optimal objective  0.000000000e+00

Gurobi 7.5.1 (win64) logging started 12/02/18 21:53:15

Academic license - for non-commercial use only
Warning for adding constraints: zero or small (< 1e-13) coefficients, ignored
Optimize a model with 3 rows, 5 columns and 13 nonzeros
Coefficient statistics:
  Matrix range     [1e+00, 9e+00]
  Objective range  [1e+00, 7e+00]
  Bounds range     [1e-01, 1e-01]
  RHS range        [0e+00, 0e+00]
Presolve removed 3 rows and 5 columns
Presolve time: 0.01s
Presolve: All rows and columns removed
Iteration    Objective       Primal Inf.    Dual Inf.      Time
       0    1.0000000e-01   0.000000e+00   0.000000e+00      0s

Solved in 0 iterations and 0.01 seconds
Optimal objective  1.000000000e-01

Gurobi 7.5.1 (win64) logging started 12/02/18 21:55:42

Academic license - for non-commercial use only
Warning for adding constraints: zero or small (< 1e-13) coefficients, ignored
Optimize a model with 3 rows, 5 columns and 13 nonzeros
Coefficient statistics:
  Matrix range     [1e+00, 9e+00]
  Objective range  [1e+00, 7e+00]
  Bounds range     [0e+00, 0e+00]
  RHS range        [0e+00, 0e+00]
Presolve removed 2 rows and 2 columns
Presolve time: 0.00s
Presolved: 1 rows, 3 columns, 3 nonzeros

Iteration    Objective       Primal Inf.    Dual Inf.      Time
       0    0.0000000e+00   0.000000e+00   0.000000e+00      0s
       0    0.0000000e+00   0.000000e+00   0.000000e+00      0s

Solved in 0 iterations and 0.01 seconds
Optimal objective  0.000000000e+00

Gurobi 7.5.1 (win64) logging started 12/02/18 22:49:41

Academic license - for non-commercial use only
Warning for adding constraints: zero or small (< 1e-13) coefficients, ignored
Optimize a model with 3 rows, 5 columns and 13 nonzeros
Coefficient statistics:
  Matrix range     [1e+00, 9e+00]
  Objective range  [1e+00, 7e+00]
  Bounds range     [0e+00, 0e+00]
  RHS range        [0e+00, 0e+00]
Presolve removed 2 rows and 2 columns
Presolve time: 0.00s
Presolved: 1 rows, 3 columns, 3 nonzeros

Iteration    Objective       Primal Inf.    Dual Inf.      Time
       0    0.0000000e+00   0.000000e+00   0.000000e+00      0s
       0    0.0000000e+00   0.000000e+00   0.000000e+00      0s

Solved in 0 iterations and 0.00 seconds
Optimal objective  0.000000000e+00

Gurobi 7.5.1 (win64) logging started 12/04/18 16:16:31

Academic license - for non-commercial use only
Warning for adding constraints: zero or small (< 1e-13) coefficients, ignored

Gurobi 7.5.1 (win64) logging started 12/04/18 16:18:20

Academic license - for non-commercial use only

Gurobi 7.5.1 (win64) logging started 12/04/18 16:22:19

Academic license - for non-commercial use only
Warning for adding constraints: zero or small (< 1e-13) coefficients, ignored
Optimize a model with 1 rows, 10 columns and 1 nonzeros
Coefficient statistics:
  Matrix range     [1e+00, 1e+00]
  Objective range  [0e+00, 0e+00]
  Bounds range     [0e+00, 0e+00]
  RHS range        [2e+00, 2e+00]
Presolve removed 1 rows and 10 columns
Presolve time: 0.00s
Presolve: All rows and columns removed
Iteration    Objective       Primal Inf.    Dual Inf.      Time
       0    0.0000000e+00   0.000000e+00   0.000000e+00      0s

Solved in 0 iterations and 0.00 seconds
Optimal objective  0.000000000e+00

Gurobi 7.5.1 (win64) logging started 12/04/18 16:22:32

Academic license - for non-commercial use only
Warning for adding constraints: zero or small (< 1e-13) coefficients, ignored
Optimize a model with 1 rows, 10 columns and 1 nonzeros
Coefficient statistics:
  Matrix range     [1e+00, 1e+00]
  Objective range  [0e+00, 0e+00]
  Bounds range     [0e+00, 0e+00]
  RHS range        [2e+00, 2e+00]
Presolve removed 1 rows and 10 columns
Presolve time: 0.00s
Presolve: All rows and columns removed
Iteration    Objective       Primal Inf.    Dual Inf.      Time
       0    0.0000000e+00   0.000000e+00   0.000000e+00      0s

Solved in 0 iterations and 0.00 seconds
Optimal objective  0.000000000e+00

Gurobi 7.5.1 (win64) logging started 12/04/18 16:23:54

Academic license - for non-commercial use only
Warning for adding constraints: zero or small (< 1e-13) coefficients, ignored
Optimize a model with 1 rows, 10 columns and 1 nonzeros
Coefficient statistics:
  Matrix range     [1e+00, 1e+00]
  Objective range  [0e+00, 0e+00]
  Bounds range     [0e+00, 0e+00]
  RHS range        [2e+00, 2e+00]

Gurobi 7.5.1 (win64) logging started 12/04/18 16:30:15

Academic license - for non-commercial use only
Warning for adding constraints: zero or small (< 1e-13) coefficients, ignored

Gurobi 7.5.1 (win64) logging started 12/04/18 16:30:31

Academic license - for non-commercial use only
Warning for adding constraints: zero or small (< 1e-13) coefficients, ignored

Gurobi 7.5.1 (win64) logging started 12/04/18 16:30:50

Academic license - for non-commercial use only
Warning for adding constraints: zero or small (< 1e-13) coefficients, ignored

Gurobi 7.5.1 (win64) logging started 12/04/18 16:31:29

Academic license - for non-commercial use only

Gurobi 7.5.1 (win64) logging started 12/04/18 16:33:22

Academic license - for non-commercial use only
Warning for adding constraints: zero or small (< 1e-13) coefficients, ignored

Gurobi 7.5.1 (win64) logging started 12/04/18 16:34:11

Academic license - for non-commercial use only
Warning for adding constraints: zero or small (< 1e-13) coefficients, ignored

Gurobi 7.5.1 (win64) logging started 12/04/18 16:35:06

Academic license - for non-commercial use only
Warning for adding constraints: zero or small (< 1e-13) coefficients, ignored

Gurobi 7.5.1 (win64) logging started 12/04/18 16:35:32

Academic license - for non-commercial use only

Gurobi 7.5.1 (win64) logging started 12/04/18 16:38:59

Academic license - for non-commercial use only
Warning for adding constraints: zero or small (< 1e-13) coefficients, ignored

Gurobi 7.5.1 (win64) logging started 12/04/18 16:40:13

Academic license - for non-commercial use only

Gurobi 7.5.1 (win64) logging started 12/04/18 16:57:56

Academic license - for non-commercial use only
Warning for adding constraints: zero or small (< 1e-13) coefficients, ignored

Gurobi 7.5.1 (win64) logging started 12/04/18 16:58:19

Academic license - for non-commercial use only
Warning for adding constraints: zero or small (< 1e-13) coefficients, ignored

Gurobi 7.5.1 (win64) logging started 12/04/18 16:58:29

Academic license - for non-commercial use only

Gurobi 7.5.1 (win64) logging started 12/04/18 17:01:20

Academic license - for non-commercial use only
Warning for adding constraints: zero or small (< 1e-13) coefficients, ignored

Gurobi 7.5.1 (win64) logging started 12/04/18 17:05:26

Academic license - for non-commercial use only
Warning for adding constraints: zero or small (< 1e-13) coefficients, ignored

Gurobi 7.5.1 (win64) logging started 12/04/18 17:06:43

Academic license - for non-commercial use only
Warning for adding constraints: zero or small (< 1e-13) coefficients, ignored

Gurobi 7.5.1 (win64) logging started 12/04/18 17:07:02

Academic license - for non-commercial use only
Warning for adding constraints: zero or small (< 1e-13) coefficients, ignored

Gurobi 7.5.1 (win64) logging started 12/04/18 17:08:17

Academic license - for non-commercial use only
Warning for adding constraints: zero or small (< 1e-13) coefficients, ignored

Gurobi 7.5.1 (win64) logging started 12/04/18 17:09:37

Academic license - for non-commercial use only
Warning for adding constraints: zero or small (< 1e-13) coefficients, ignored

Gurobi 7.5.1 (win64) logging started 12/04/18 17:10:08

Academic license - for non-commercial use only
Warning for adding constraints: zero or small (< 1e-13) coefficients, ignored

Gurobi 7.5.1 (win64) logging started 12/04/18 17:10:40

Academic license - for non-commercial use only
Warning for adding constraints: zero or small (< 1e-13) coefficients, ignored

Gurobi 7.5.1 (win64) logging started 12/04/18 17:11:56

Academic license - for non-commercial use only
Warning for adding constraints: zero or small (< 1e-13) coefficients, ignored

Gurobi 7.5.1 (win64) logging started 12/04/18 17:12:27

Academic license - for non-commercial use only
Warning for adding constraints: zero or small (< 1e-13) coefficients, ignored

Gurobi 7.5.1 (win64) logging started 12/04/18 17:16:11

Academic license - for non-commercial use only
Warning for adding constraints: zero or small (< 1e-13) coefficients, ignored

Gurobi 7.5.1 (win64) logging started 12/04/18 17:19:27

Academic license - for non-commercial use only
Warning for adding constraints: zero or small (< 1e-13) coefficients, ignored
Optimize a model with 1 rows, 9 columns and 0 nonzeros
Variable types: 5 continuous, 4 integer (4 binary)
Coefficient statistics:
  Matrix range     [0e+00, 0e+00]
  Objective range  [0e+00, 0e+00]
  Bounds range     [1e+00, 1e+00]
  RHS range        [2e+00, 2e+00]
Found heuristic solution: objective 0

Explored 0 nodes (0 simplex iterations) in 0.02 seconds
Thread count was 1 (of 8 available processors)

Solution count 1: 0 

Optimal solution found (tolerance 1.00e-04)
Best objective 0.000000000000e+00, best bound 0.000000000000e+00, gap 0.0000%

Gurobi 7.5.1 (win64) logging started 12/04/18 17:20:59

Academic license - for non-commercial use only
Warning for adding constraints: zero or small (< 1e-13) coefficients, ignored
Optimize a model with 1 rows, 9 columns and 0 nonzeros
Variable types: 5 continuous, 4 integer (4 binary)
Coefficient statistics:
  Matrix range     [0e+00, 0e+00]
  Objective range  [0e+00, 0e+00]
  Bounds range     [1e+00, 1e+00]
  RHS range        [2e+00, 2e+00]
Found heuristic solution: objective 0

Explored 0 nodes (0 simplex iterations) in 0.00 seconds
Thread count was 1 (of 8 available processors)

Solution count 1: 0 

Optimal solution found (tolerance 1.00e-04)
Best objective 0.000000000000e+00, best bound 0.000000000000e+00, gap 0.0000%

Gurobi 7.5.1 (win64) logging started 12/04/18 17:42:10

Academic license - for non-commercial use only
Warning for adding constraints: zero or small (< 1e-13) coefficients, ignored
Optimize a model with 1 rows, 9 columns and 0 nonzeros
Variable types: 5 continuous, 4 integer (4 binary)
Coefficient statistics:
  Matrix range     [0e+00, 0e+00]
  Objective range  [1e+00, 7e+00]
  Bounds range     [1e+00, 1e+00]
  RHS range        [2e+00, 2e+00]
Found heuristic solution: objective 0

Explored 0 nodes (0 simplex iterations) in 0.00 seconds
Thread count was 1 (of 8 available processors)

Solution count 1: 0 

Optimal solution found (tolerance 1.00e-04)
Best objective 0.000000000000e+00, best bound 0.000000000000e+00, gap 0.0000%

Gurobi 7.5.1 (win64) logging started 12/04/18 17:45:03

Academic license - for non-commercial use only
Warning for adding constraints: zero or small (< 1e-13) coefficients, ignored
Optimize a model with 1 rows, 9 columns and 0 nonzeros
Variable types: 5 continuous, 4 integer (4 binary)
Coefficient statistics:
  Matrix range     [0e+00, 0e+00]
  Objective range  [1e+00, 7e+00]
  Bounds range     [1e+00, 1e+00]
  RHS range        [2e+00, 2e+00]
Found heuristic solution: objective 0

Explored 0 nodes (0 simplex iterations) in 0.00 seconds
Thread count was 1 (of 8 available processors)

Solution count 1: 0 

Optimal solution found (tolerance 1.00e-04)
Best objective 0.000000000000e+00, best bound 0.000000000000e+00, gap 0.0000%

Gurobi 7.5.1 (win64) logging started 12/04/18 17:45:48

Academic license - for non-commercial use only
Warning for adding constraints: zero or small (< 1e-13) coefficients, ignored
Optimize a model with 1 rows, 9 columns and 0 nonzeros
Variable types: 5 continuous, 4 integer (4 binary)
Coefficient statistics:
  Matrix range     [0e+00, 0e+00]
  Objective range  [1e+00, 7e+00]
  Bounds range     [1e+00, 1e+00]
  RHS range        [2e+00, 2e+00]
Found heuristic solution: objective 0

Explored 0 nodes (0 simplex iterations) in 0.00 seconds
Thread count was 1 (of 8 available processors)

Solution count 1: 0 

Optimal solution found (tolerance 1.00e-04)
Best objective 0.000000000000e+00, best bound 0.000000000000e+00, gap 0.0000%

Gurobi 7.5.1 (win64) logging started 12/04/18 17:46:29

Academic license - for non-commercial use only
Warning for adding constraints: zero or small (< 1e-13) coefficients, ignored
Optimize a model with 1 rows, 9 columns and 0 nonzeros
Variable types: 5 continuous, 4 integer (4 binary)
Coefficient statistics:
  Matrix range     [0e+00, 0e+00]
  Objective range  [1e+00, 7e+00]
  Bounds range     [1e+00, 1e+00]
  RHS range        [2e+00, 2e+00]
Found heuristic solution: objective 0

Explored 0 nodes (0 simplex iterations) in 0.00 seconds
Thread count was 1 (of 8 available processors)

Solution count 1: 0 

Optimal solution found (tolerance 1.00e-04)
Best objective 0.000000000000e+00, best bound 0.000000000000e+00, gap 0.0000%

Gurobi 7.5.1 (win64) logging started 12/04/18 17:49:11

Academic license - for non-commercial use only
Warning for adding constraints: zero or small (< 1e-13) coefficients, ignored

Gurobi 7.5.1 (win64) logging started 12/04/18 17:56:19

Academic license - for non-commercial use only
Warning for adding constraints: zero or small (< 1e-13) coefficients, ignored
Optimize a model with 8 rows, 9 columns and 14 nonzeros
Variable types: 5 continuous, 4 integer (4 binary)
Coefficient statistics:
  Matrix range     [1e+00, 9e+00]
  Objective range  [1e+00, 7e+00]
  Bounds range     [1e+00, 1e+00]
  RHS range        [2e+00, 2e+00]
Found heuristic solution: objective 0

Explored 0 nodes (0 simplex iterations) in 0.00 seconds
Thread count was 1 (of 8 available processors)

Solution count 1: 0 

Optimal solution found (tolerance 1.00e-04)
Best objective 0.000000000000e+00, best bound 0.000000000000e+00, gap 0.0000%

Gurobi 7.5.1 (win64) logging started 12/04/18 17:56:39

Academic license - for non-commercial use only
Warning for adding constraints: zero or small (< 1e-13) coefficients, ignored
Optimize a model with 8 rows, 9 columns and 14 nonzeros
Variable types: 5 continuous, 4 integer (4 binary)
Coefficient statistics:
  Matrix range     [1e+00, 9e+00]
  Objective range  [1e+00, 7e+00]
  Bounds range     [1e+00, 1e+00]
  RHS range        [2e+00, 2e+00]
Found heuristic solution: objective 0

Explored 0 nodes (0 simplex iterations) in 0.00 seconds
Thread count was 1 (of 8 available processors)

Solution count 1: 0 

Optimal solution found (tolerance 1.00e-04)
Best objective 0.000000000000e+00, best bound 0.000000000000e+00, gap 0.0000%

Gurobi 7.5.1 (win64) logging started 12/04/18 17:58:33

Academic license - for non-commercial use only
Warning for adding constraints: zero or small (< 1e-13) coefficients, ignored
Optimize a model with 8 rows, 9 columns and 14 nonzeros
Variable types: 5 continuous, 4 integer (4 binary)
Coefficient statistics:
  Matrix range     [1e+00, 9e+00]
  Objective range  [1e+00, 7e+00]
  Bounds range     [1e+00, 1e+00]
  RHS range        [2e+00, 2e+00]
Found heuristic solution: objective 0

Explored 0 nodes (0 simplex iterations) in 0.00 seconds
Thread count was 1 (of 8 available processors)

Solution count 1: 0 

Optimal solution found (tolerance 1.00e-04)
Best objective 0.000000000000e+00, best bound 0.000000000000e+00, gap 0.0000%

Gurobi 7.5.1 (win64) logging started 12/04/18 18:02:39

Academic license - for non-commercial use only
Warning for adding constraints: zero or small (< 1e-13) coefficients, ignored
Optimize a model with 8 rows, 9 columns and 14 nonzeros
Variable types: 5 continuous, 4 integer (4 binary)
Coefficient statistics:
  Matrix range     [1e+00, 9e+00]
  Objective range  [1e+00, 7e+00]
  Bounds range     [1e+00, 1e+00]
  RHS range        [2e+00, 2e+00]
Found heuristic solution: objective 0

Explored 0 nodes (0 simplex iterations) in 0.00 seconds
Thread count was 1 (of 8 available processors)

Solution count 1: 0 

Optimal solution found (tolerance 1.00e-04)
Best objective 0.000000000000e+00, best bound 0.000000000000e+00, gap 0.0000%

Gurobi 7.5.1 (win64) logging started 12/04/18 18:02:50

Academic license - for non-commercial use only
Warning for adding constraints: zero or small (< 1e-13) coefficients, ignored
Optimize a model with 8 rows, 9 columns and 14 nonzeros
Variable types: 5 continuous, 4 integer (4 binary)
Coefficient statistics:
  Matrix range     [1e+00, 9e+00]
  Objective range  [1e+00, 7e+00]
  Bounds range     [1e+00, 1e+00]
  RHS range        [2e+00, 2e+00]
Found heuristic solution: objective 0

Explored 0 nodes (0 simplex iterations) in 0.00 seconds
Thread count was 1 (of 8 available processors)

Solution count 1: 0 

Optimal solution found (tolerance 1.00e-04)
Best objective 0.000000000000e+00, best bound 0.000000000000e+00, gap 0.0000%

Gurobi 7.5.1 (win64) logging started 12/04/18 18:05:05

Academic license - for non-commercial use only
Warning for adding constraints: zero or small (< 1e-13) coefficients, ignored

Gurobi 7.5.1 (win64) logging started 12/04/18 18:05:15

Academic license - for non-commercial use only

Gurobi 7.5.1 (win64) logging started 12/04/18 18:05:39

Academic license - for non-commercial use only
Warning for adding constraints: zero or small (< 1e-13) coefficients, ignored

Gurobi 7.5.1 (win64) logging started 12/04/18 18:06:47

Academic license - for non-commercial use only
Warning for adding constraints: zero or small (< 1e-13) coefficients, ignored

Gurobi 7.5.1 (win64) logging started 12/04/18 18:09:21

Academic license - for non-commercial use only
Warning for adding constraints: zero or small (< 1e-13) coefficients, ignored

Gurobi 7.5.1 (win64) logging started 12/04/18 18:09:36

Academic license - for non-commercial use only
Warning for adding constraints: zero or small (< 1e-13) coefficients, ignored

Gurobi 7.5.1 (win64) logging started 12/04/18 18:09:56

Academic license - for non-commercial use only
Warning for adding constraints: zero or small (< 1e-13) coefficients, ignored
Optimize a model with 8 rows, 9 columns and 19 nonzeros
Variable types: 5 continuous, 4 integer (4 binary)
Coefficient statistics:
  Matrix range     [1e+00, 9e+00]
  Objective range  [1e+00, 7e+00]
  Bounds range     [1e+00, 1e+00]
  RHS range        [2e+00, 2e+00]
Found heuristic solution: objective 0

Explored 0 nodes (0 simplex iterations) in 0.00 seconds
Thread count was 1 (of 8 available processors)

Solution count 1: 0 

Optimal solution found (tolerance 1.00e-04)
Best objective 0.000000000000e+00, best bound 0.000000000000e+00, gap 0.0000%

Gurobi 7.5.1 (win64) logging started 12/04/18 18:10:01

Academic license - for non-commercial use only
Warning for adding constraints: zero or small (< 1e-13) coefficients, ignored
Optimize a model with 8 rows, 9 columns and 19 nonzeros
Variable types: 5 continuous, 4 integer (4 binary)
Coefficient statistics:
  Matrix range     [1e+00, 9e+00]
  Objective range  [1e+00, 7e+00]
  Bounds range     [1e+00, 1e+00]
  RHS range        [2e+00, 2e+00]
Found heuristic solution: objective 0

Explored 0 nodes (0 simplex iterations) in 0.00 seconds
Thread count was 1 (of 8 available processors)

Solution count 1: 0 

Optimal solution found (tolerance 1.00e-04)
Best objective 0.000000000000e+00, best bound 0.000000000000e+00, gap 0.0000%

Gurobi 7.5.1 (win64) logging started 12/04/18 18:10:08

Academic license - for non-commercial use only
Warning for adding constraints: zero or small (< 1e-13) coefficients, ignored
Optimize a model with 8 rows, 9 columns and 19 nonzeros
Variable types: 5 continuous, 4 integer (4 binary)
Coefficient statistics:
  Matrix range     [1e+00, 9e+00]
  Objective range  [1e+00, 7e+00]
  Bounds range     [1e+00, 1e+00]
  RHS range        [2e+00, 2e+00]
Found heuristic solution: objective 0

Explored 0 nodes (0 simplex iterations) in 0.00 seconds
Thread count was 1 (of 8 available processors)

Solution count 1: 0 

Optimal solution found (tolerance 1.00e-04)
Best objective 0.000000000000e+00, best bound 0.000000000000e+00, gap 0.0000%

Gurobi 7.5.1 (win64) logging started 12/04/18 18:10:40

Academic license - for non-commercial use only
Warning for adding constraints: zero or small (< 1e-13) coefficients, ignored
Optimize a model with 8 rows, 9 columns and 14 nonzeros
Variable types: 5 continuous, 4 integer (4 binary)
Coefficient statistics:
  Matrix range     [1e+00, 9e+00]
  Objective range  [1e+00, 7e+00]
  Bounds range     [1e+00, 1e+00]
  RHS range        [2e+00, 2e+00]
Found heuristic solution: objective 0

Explored 0 nodes (0 simplex iterations) in 0.00 seconds
Thread count was 1 (of 8 available processors)

Solution count 1: 0 

Optimal solution found (tolerance 1.00e-04)
Best objective 0.000000000000e+00, best bound 0.000000000000e+00, gap 0.0000%

Gurobi 7.5.1 (win64) logging started 12/04/18 18:12:27

Academic license - for non-commercial use only
Warning for adding constraints: zero or small (< 1e-13) coefficients, ignored
Optimize a model with 8 rows, 9 columns and 19 nonzeros
Variable types: 5 continuous, 4 integer (4 binary)
Coefficient statistics:
  Matrix range     [1e+00, 9e+00]
  Objective range  [1e+00, 7e+00]
  Bounds range     [1e+00, 1e+00]
  RHS range        [2e+00, 2e+00]
Found heuristic solution: objective 0

Explored 0 nodes (0 simplex iterations) in 0.00 seconds
Thread count was 1 (of 8 available processors)

Solution count 1: 0 

Optimal solution found (tolerance 1.00e-04)
Best objective 0.000000000000e+00, best bound 0.000000000000e+00, gap 0.0000%

Gurobi 7.5.1 (win64) logging started 12/04/18 18:14:05

Academic license - for non-commercial use only
Warning for adding constraints: zero or small (< 1e-13) coefficients, ignored

Gurobi 7.5.1 (win64) logging started 12/04/18 18:16:30

Academic license - for non-commercial use only
Warning for adding constraints: zero or small (< 1e-13) coefficients, ignored
Optimize a model with 8 rows, 9 columns and 14 nonzeros
Variable types: 5 continuous, 4 integer (4 binary)
Coefficient statistics:
  Matrix range     [1e+00, 9e+00]
  Objective range  [1e+00, 7e+00]
  Bounds range     [1e+00, 1e+00]
  RHS range        [2e+00, 2e+00]
Found heuristic solution: objective 0

Explored 0 nodes (0 simplex iterations) in 0.00 seconds
Thread count was 1 (of 8 available processors)

Solution count 1: 0 

Optimal solution found (tolerance 1.00e-04)
Best objective 0.000000000000e+00, best bound 0.000000000000e+00, gap 0.0000%

Gurobi 7.5.1 (win64) logging started 12/04/18 18:18:33

Academic license - for non-commercial use only
Warning for adding constraints: zero or small (< 1e-13) coefficients, ignored
Optimize a model with 5 rows, 9 columns and 14 nonzeros
Variable types: 5 continuous, 4 integer (4 binary)
Coefficient statistics:
  Matrix range     [1e+00, 9e+00]
  Objective range  [1e+00, 7e+00]
  Bounds range     [1e+00, 1e+00]
  RHS range        [2e+00, 2e+00]
Found heuristic solution: objective 0

Explored 0 nodes (0 simplex iterations) in 0.00 seconds
Thread count was 1 (of 8 available processors)

Solution count 1: 0 

Optimal solution found (tolerance 1.00e-04)
Best objective 0.000000000000e+00, best bound 0.000000000000e+00, gap 0.0000%

Gurobi 7.5.1 (win64) logging started 12/04/18 18:18:52

Academic license - for non-commercial use only
Warning for adding constraints: zero or small (< 1e-13) coefficients, ignored
Optimize a model with 1 rows, 9 columns and 0 nonzeros
Variable types: 5 continuous, 4 integer (4 binary)
Coefficient statistics:
  Matrix range     [0e+00, 0e+00]
  Objective range  [1e+00, 7e+00]
  Bounds range     [1e+00, 1e+00]
  RHS range        [2e+00, 2e+00]
Found heuristic solution: objective 0

Explored 0 nodes (0 simplex iterations) in 0.00 seconds
Thread count was 1 (of 8 available processors)

Solution count 1: 0 

Optimal solution found (tolerance 1.00e-04)
Best objective 0.000000000000e+00, best bound 0.000000000000e+00, gap 0.0000%

Gurobi 7.5.1 (win64) logging started 12/04/18 18:19:04

Academic license - for non-commercial use only
Warning for adding constraints: zero or small (< 1e-13) coefficients, ignored
Optimize a model with 8 rows, 9 columns and 20 nonzeros
Variable types: 5 continuous, 4 integer (4 binary)
Coefficient statistics:
  Matrix range     [1e+00, 9e+00]
  Objective range  [1e+00, 7e+00]
  Bounds range     [1e+00, 1e+00]
  RHS range        [2e+00, 2e+00]
Found heuristic solution: objective 0

Explored 0 nodes (0 simplex iterations) in 0.00 seconds
Thread count was 1 (of 8 available processors)

Solution count 1: 0 

Optimal solution found (tolerance 1.00e-04)
Best objective 0.000000000000e+00, best bound 0.000000000000e+00, gap 0.0000%

Gurobi 7.5.1 (win64) logging started 12/04/18 18:20:54

Academic license - for non-commercial use only
Warning for adding constraints: zero or small (< 1e-13) coefficients, ignored

Gurobi 7.5.1 (win64) logging started 12/04/18 18:21:41

Academic license - for non-commercial use only
Warning for adding constraints: zero or small (< 1e-13) coefficients, ignored

Gurobi 7.5.1 (win64) logging started 12/04/18 18:22:03

Academic license - for non-commercial use only
Warning for adding constraints: zero or small (< 1e-13) coefficients, ignored
Optimize a model with 8 rows, 9 columns and 20 nonzeros
Variable types: 5 continuous, 4 integer (4 binary)
Coefficient statistics:
  Matrix range     [1e+00, 9e+00]
  Objective range  [1e+00, 7e+00]
  Bounds range     [1e+00, 1e+00]
  RHS range        [2e+00, 2e+00]
Found heuristic solution: objective 0

Explored 0 nodes (0 simplex iterations) in 0.00 seconds
Thread count was 1 (of 8 available processors)

Solution count 1: 0 

Optimal solution found (tolerance 1.00e-04)
Best objective 0.000000000000e+00, best bound 0.000000000000e+00, gap 0.0000%

Gurobi 7.5.1 (win64) logging started 12/04/18 18:24:46

Academic license - for non-commercial use only
Warning for adding constraints: zero or small (< 1e-13) coefficients, ignored
Optimize a model with 8 rows, 9 columns and 21 nonzeros
Variable types: 5 continuous, 4 integer (4 binary)
Coefficient statistics:
  Matrix range     [1e+00, 9e+00]
  Objective range  [1e+00, 7e+00]
  Bounds range     [1e+00, 1e+00]
  RHS range        [2e+00, 2e+00]
Found heuristic solution: objective 0

Explored 0 nodes (0 simplex iterations) in 0.00 seconds
Thread count was 1 (of 8 available processors)

Solution count 1: 0 

Optimal solution found (tolerance 1.00e-04)
Best objective 0.000000000000e+00, best bound 0.000000000000e+00, gap 0.0000%

Gurobi 7.5.1 (win64) logging started 12/04/18 18:26:54

Academic license - for non-commercial use only
Warning for adding constraints: zero or small (< 1e-13) coefficients, ignored

Gurobi 7.5.1 (win64) logging started 12/04/18 18:29:57

Academic license - for non-commercial use only
Warning for adding constraints: zero or small (< 1e-13) coefficients, ignored
Optimize a model with 8 rows, 9 columns and 25 nonzeros
Variable types: 5 continuous, 4 integer (4 binary)
Coefficient statistics:
  Matrix range     [1e+00, 9e+00]
  Objective range  [1e+00, 7e+00]
  Bounds range     [1e+00, 1e+00]
  RHS range        [2e+00, 2e+00]
Found heuristic solution: objective 0

Explored 0 nodes (0 simplex iterations) in 0.00 seconds
Thread count was 1 (of 8 available processors)

Solution count 1: 0 

Optimal solution found (tolerance 1.00e-04)
Best objective 0.000000000000e+00, best bound 0.000000000000e+00, gap 0.0000%

Gurobi 7.5.1 (win64) logging started 12/04/18 18:32:06

Academic license - for non-commercial use only
Warning for adding constraints: zero or small (< 1e-13) coefficients, ignored
Optimize a model with 8 rows, 9 columns and 24 nonzeros
Variable types: 5 continuous, 4 integer (4 binary)
Coefficient statistics:
  Matrix range     [1e+00, 9e+00]
  Objective range  [1e+00, 7e+00]
  Bounds range     [1e+00, 1e+00]
  RHS range        [2e+00, 2e+00]
Found heuristic solution: objective 0

Explored 0 nodes (0 simplex iterations) in 0.00 seconds
Thread count was 1 (of 8 available processors)

Solution count 1: 0 

Optimal solution found (tolerance 1.00e-04)
Best objective 0.000000000000e+00, best bound 0.000000000000e+00, gap 0.0000%

Gurobi 7.5.1 (win64) logging started 12/04/18 18:32:14

Academic license - for non-commercial use only
Warning for adding constraints: zero or small (< 1e-13) coefficients, ignored
Optimize a model with 8 rows, 9 columns and 24 nonzeros
Variable types: 5 continuous, 4 integer (4 binary)
Coefficient statistics:
  Matrix range     [1e+00, 9e+00]
  Objective range  [1e+00, 7e+00]
  Bounds range     [1e+00, 1e+00]
  RHS range        [2e+00, 2e+00]
Found heuristic solution: objective 0

Explored 0 nodes (0 simplex iterations) in 0.00 seconds
Thread count was 1 (of 8 available processors)

Solution count 1: 0 

Optimal solution found (tolerance 1.00e-04)
Best objective 0.000000000000e+00, best bound 0.000000000000e+00, gap 0.0000%

Gurobi 7.5.1 (win64) logging started 12/04/18 18:34:02

Academic license - for non-commercial use only
Warning for adding constraints: zero or small (< 1e-13) coefficients, ignored
Optimize a model with 8 rows, 9 columns and 25 nonzeros
Variable types: 5 continuous, 4 integer (4 binary)
Coefficient statistics:
  Matrix range     [1e+00, 9e+00]
  Objective range  [1e+00, 7e+00]
  Bounds range     [1e+00, 1e+00]
  RHS range        [2e+00, 2e+00]
Found heuristic solution: objective 0

Explored 0 nodes (0 simplex iterations) in 0.00 seconds
Thread count was 1 (of 8 available processors)

Solution count 1: 0 

Optimal solution found (tolerance 1.00e-04)
Best objective 0.000000000000e+00, best bound 0.000000000000e+00, gap 0.0000%
